p edge 50 123
e 1 3
e 1 9
e 1 12
e 1 13
e 1 26
e 1 27
e 1 50
e 2 16
e 2 26
e 2 40
e 3 4
e 3 7
e 3 19
e 3 25
e 4 19
e 4 20
e 4 24
e 4 26
e 4 29
e 4 34
e 4 45
e 4 46
e 5 23
e 5 30
e 6 8
e 6 17
e 6 18
e 6 20
e 6 35
e 6 41
e 7 9
e 7 17
e 7 19
e 7 31
e 7 33
e 7 37
e 7 46
e 7 49
e 8 13
e 8 18
e 8 24
e 8 41
e 9 21
e 9 29
e 9 31
e 9 39
e 9 50
e 10 18
e 10 36
e 10 42
e 10 47
e 11 13
e 11 31
e 11 38
e 12 23
e 13 14
e 13 18
e 13 26
e 13 37
e 13 38
e 14 23
e 15 26
e 16 18
e 16 28
e 16 35
e 17 23
e 17 25
e 17 43
e 18 23
e 18 34
e 18 39
e 18 40
e 19 26
e 19 30
e 19 34
e 19 37
e 19 39
e 19 42
e 20 35
e 20 44
e 21 33
e 21 45
e 22 33
e 22 38
e 22 47
e 23 26
e 23 36
e 23 46
e 24 26
e 24 31
e 24 40
e 24 43
e 27 41
e 27 44
e 27 49
e 28 39
e 28 46
e 29 45
e 29 47
e 29 48
e 29 49
e 30 34
e 30 38
e 31 50
e 32 35
e 32 41
e 32 43
e 32 50
e 33 34
e 33 39
e 34 39
e 34 46
e 34 47
e 35 37
e 35 40
e 35 42
e 35 47
e 37 39
e 37 42
e 39 44
e 40 49
e 44 45
e 44 46
